20
2 0 20
2 1 107
3 0 194
4 3 258
5 2 70
6 0 83
6 1 199
6 2 175
6 3 311
6 4 53
7 1 135
7 6 86
8 0 102
8 2 249
8 3 169
8 4 158
9 1 201
9 2 60
9 3 243
9 5 142
10 0 232
10 3 46
10 4 190
11 0 226
11 1 138
11 7 183
11 8 205
11 9 145
11 10 237
12 0 258
12 3 192
12 5 260
12 9 273
13 1 69
13 2 289
13 11 164
14 1 261
14 4 124
14 10 58
14 11 302
14 12 37
14 13 260
15 1 125
15 4 89
15 5 202
15 9 196
15 10 230
15 13 310
15 14 249
16 2 91
16 4 120
16 12 181
16 13 223
16 14 111
16 15 237
17 1 43
17 7 32
17 9 226
17 15 226
18 1 104
18 2 88
18 3 174
18 4 313
18 5 252
18 8 18
18 11 252
18 12 167
18 13 184
18 17 145
19 1 113
19 4 281
19 7 270
19 8 209
19 9 65
19 11 139
19 14 317
19 15 21
19 16 154
19 17 101
19 18 55
